c A SAT instance generated from a 3-CNF formula that had 33 clauses and 11 variables
p cnf 11 33
11 4 -10 0
11 3 -7 0
7 -3 -6 0
7 11 5 0
6 -10 -2 0
-1 -5 -10 0
7 -8 1 0
1 3 2 0
-1 -5 -6 0
9 -5 -10 0
8 -1 11 0
-7 10 1 0
-6 11 -9 0
-9 2 1 0
2 -8 7 0
5 9 6 0
-11 -6 4 0
-9 -11 5 0
-10 5 2 0
2 4 10 0
-8 -10 4 0
11 7 10 0
-2 -8 9 0
-3 8 -4 0
8 11 -1 0
10 -5 -8 0
-8 -9 11 0
5 4 10 0
8 -4 -7 0
6 -11 7 0
5 -11 3 0
3 -6 4 0
-10 1 -2 0
